Problem:    set_partitioning
Rows:       20
Columns:    294 (294 integer, 294 binary)
Non-zeros:  1651
Status:     INTEGER OPTIMAL
Objective:  obj = 14877 (MINimum)

   No.   Row name        Activity     Lower bound   Upper bound
------ ------------    ------------- ------------- -------------
     1 rest_elements[1]
                                   1             1             = 
     2 rest_elements[2]
                                   1             1             = 
     3 rest_elements[3]
                                   1             1             = 
     4 rest_elements[4]
                                   1             1             = 
     5 rest_elements[5]
                                   1             1             = 
     6 rest_elements[6]
                                   1             1             = 
     7 rest_elements[7]
                                   1             1             = 
     8 rest_elements[8]
                                   1             1             = 
     9 rest_elements[9]
                                   1             1             = 
    10 rest_elements[10]
                                   1             1             = 
    11 rest_elements[11]
                                   1             1             = 
    12 rest_elements[12]
                                   1             1             = 
    13 rest_elements[13]
                                   1             1             = 
    14 rest_elements[14]
                                   1             1             = 
    15 rest_elements[15]
                                   1             1             = 
    16 rest_elements[16]
                                   1             1             = 
    17 rest_elements[17]
                                   1             1             = 
    18 rest_elements[18]
                                   1             1             = 
    19 rest_elements[19]
                                   1             1             = 
    20 obj                     14877                             

   No. Column name       Activity     Lower bound   Upper bound
------ ------------    ------------- ------------- -------------
     1 a[1]         *              1             0             1 
     2 a[2]         *              0             0             1 
     3 a[3]         *              0             0             1 
     4 a[4]         *              1             0             1 
     5 a[5]         *              0             0             1 
     6 a[6]         *              0             0             1 
     7 a[7]         *              0             0             1 
     8 a[8]         *              0             0             1 
     9 a[9]         *              0             0             1 
    10 a[10]        *              0             0             1 
    11 a[11]        *              0             0             1 
    12 a[12]        *              0             0             1 
    13 a[13]        *              0             0             1 
    14 a[14]        *              0             0             1 
    15 a[15]        *              0             0             1 
    16 a[16]        *              0             0             1 
    17 a[17]        *              0             0             1 
    18 a[18]        *              1             0             1 
    19 a[19]        *              0             0             1 
    20 a[20]        *              0             0             1 
    21 a[21]        *              0             0             1 
    22 a[22]        *              0             0             1 
    23 a[23]        *              0             0             1 
    24 a[24]        *              0             0             1 
    25 a[25]        *              0             0             1 
    26 a[26]        *              0             0             1 
    27 a[27]        *              0             0             1 
    28 a[28]        *              0             0             1 
    29 a[29]        *              0             0             1 
    30 a[30]        *              0             0             1 
    31 a[31]        *              0             0             1 
    32 a[32]        *              0             0             1 
    33 a[33]        *              0             0             1 
    34 a[34]        *              0             0             1 
    35 a[35]        *              0             0             1 
    36 a[36]        *              0             0             1 
    37 a[37]        *              0             0             1 
    38 a[38]        *              0             0             1 
    39 a[39]        *              0             0             1 
    40 a[40]        *              0             0             1 
    41 a[41]        *              0             0             1 
    42 a[42]        *              0             0             1 
    43 a[43]        *              1             0             1 
    44 a[44]        *              0             0             1 
    45 a[45]        *              0             0             1 
    46 a[46]        *              0             0             1 
    47 a[47]        *              0             0             1 
    48 a[48]        *              0             0             1 
    49 a[49]        *              0             0             1 
    50 a[50]        *              0             0             1 
    51 a[51]        *              0             0             1 
    52 a[52]        *              0             0             1 
    53 a[53]        *              0             0             1 
    54 a[54]        *              0             0             1 
    55 a[55]        *              0             0             1 
    56 a[56]        *              0             0             1 
    57 a[57]        *              0             0             1 
    58 a[58]        *              0             0             1 
    59 a[59]        *              0             0             1 
    60 a[60]        *              0             0             1 
    61 a[61]        *              0             0             1 
    62 a[62]        *              0             0             1 
    63 a[63]        *              0             0             1 
    64 a[64]        *              0             0             1 
    65 a[65]        *              0             0             1 
    66 a[66]        *              0             0             1 
    67 a[67]        *              0             0             1 
    68 a[68]        *              0             0             1 
    69 a[69]        *              0             0             1 
    70 a[70]        *              0             0             1 
    71 a[71]        *              0             0             1 
    72 a[72]        *              0             0             1 
    73 a[73]        *              0             0             1 
    74 a[74]        *              0             0             1 
    75 a[75]        *              0             0             1 
    76 a[76]        *              0             0             1 
    77 a[77]        *              0             0             1 
    78 a[78]        *              0             0             1 
    79 a[79]        *              0             0             1 
    80 a[80]        *              0             0             1 
    81 a[81]        *              0             0             1 
    82 a[82]        *              0             0             1 
    83 a[83]        *              0             0             1 
    84 a[84]        *              0             0             1 
    85 a[85]        *              0             0             1 
    86 a[86]        *              0             0             1 
    87 a[87]        *              0             0             1 
    88 a[88]        *              0             0             1 
    89 a[89]        *              0             0             1 
    90 a[90]        *              0             0             1 
    91 a[91]        *              0             0             1 
    92 a[92]        *              0             0             1 
    93 a[93]        *              0             0             1 
    94 a[94]        *              0             0             1 
    95 a[95]        *              0             0             1 
    96 a[96]        *              0             0             1 
    97 a[97]        *              0             0             1 
    98 a[98]        *              0             0             1 
    99 a[99]        *              0             0             1 
   100 a[100]       *              0             0             1 
   101 a[101]       *              0             0             1 
   102 a[102]       *              0             0             1 
   103 a[103]       *              0             0             1 
   104 a[104]       *              1             0             1 
   105 a[105]       *              0             0             1 
   106 a[106]       *              0             0             1 
   107 a[107]       *              0             0             1 
   108 a[108]       *              0             0             1 
   109 a[109]       *              0             0             1 
   110 a[110]       *              0             0             1 
   111 a[111]       *              0             0             1 
   112 a[112]       *              0             0             1 
   113 a[113]       *              0             0             1 
   114 a[114]       *              0             0             1 
   115 a[115]       *              0             0             1 
   116 a[116]       *              0             0             1 
   117 a[117]       *              0             0             1 
   118 a[118]       *              0             0             1 
   119 a[119]       *              0             0             1 
   120 a[120]       *              0             0             1 
   121 a[121]       *              0             0             1 
   122 a[122]       *              0             0             1 
   123 a[123]       *              0             0             1 
   124 a[124]       *              0             0             1 
   125 a[125]       *              0             0             1 
   126 a[126]       *              0             0             1 
   127 a[127]       *              0             0             1 
   128 a[128]       *              0             0             1 
   129 a[129]       *              0             0             1 
   130 a[130]       *              0             0             1 
   131 a[131]       *              0             0             1 
   132 a[132]       *              0             0             1 
   133 a[133]       *              0             0             1 
   134 a[134]       *              0             0             1 
   135 a[135]       *              0             0             1 
   136 a[136]       *              0             0             1 
   137 a[137]       *              0             0             1 
   138 a[138]       *              0             0             1 
   139 a[139]       *              0             0             1 
   140 a[140]       *              0             0             1 
   141 a[141]       *              0             0             1 
   142 a[142]       *              0             0             1 
   143 a[143]       *              0             0             1 
   144 a[144]       *              0             0             1 
   145 a[145]       *              0             0             1 
   146 a[146]       *              0             0             1 
   147 a[147]       *              0             0             1 
   148 a[148]       *              0             0             1 
   149 a[149]       *              0             0             1 
   150 a[150]       *              0             0             1 
   151 a[151]       *              0             0             1 
   152 a[152]       *              0             0             1 
   153 a[153]       *              0             0             1 
   154 a[154]       *              0             0             1 
   155 a[155]       *              0             0             1 
   156 a[156]       *              0             0             1 
   157 a[157]       *              0             0             1 
   158 a[158]       *              0             0             1 
   159 a[159]       *              0             0             1 
   160 a[160]       *              0             0             1 
   161 a[161]       *              0             0             1 
   162 a[162]       *              0             0             1 
   163 a[163]       *              0             0             1 
   164 a[164]       *              0             0             1 
   165 a[165]       *              0             0             1 
   166 a[166]       *              0             0             1 
   167 a[167]       *              0             0             1 
   168 a[168]       *              0             0             1 
   169 a[169]       *              0             0             1 
   170 a[170]       *              0             0             1 
   171 a[171]       *              0             0             1 
   172 a[172]       *              0             0             1 
   173 a[173]       *              0             0             1 
   174 a[174]       *              0             0             1 
   175 a[175]       *              0             0             1 
   176 a[176]       *              0             0             1 
   177 a[177]       *              0             0             1 
   178 a[178]       *              0             0             1 
   179 a[179]       *              0             0             1 
   180 a[180]       *              0             0             1 
   181 a[181]       *              0             0             1 
   182 a[182]       *              0             0             1 
   183 a[183]       *              0             0             1 
   184 a[184]       *              0             0             1 
   185 a[185]       *              0             0             1 
   186 a[186]       *              0             0             1 
   187 a[187]       *              0             0             1 
   188 a[188]       *              0             0             1 
   189 a[189]       *              0             0             1 
   190 a[190]       *              1             0             1 
   191 a[191]       *              0             0             1 
   192 a[192]       *              0             0             1 
   193 a[193]       *              0             0             1 
   194 a[194]       *              0             0             1 
   195 a[195]       *              0             0             1 
   196 a[196]       *              0             0             1 
   197 a[197]       *              0             0             1 
   198 a[198]       *              0             0             1 
   199 a[199]       *              0             0             1 
   200 a[200]       *              0             0             1 
   201 a[201]       *              0             0             1 
   202 a[202]       *              0             0             1 
   203 a[203]       *              0             0             1 
   204 a[204]       *              0             0             1 
   205 a[205]       *              0             0             1 
   206 a[206]       *              0             0             1 
   207 a[207]       *              0             0             1 
   208 a[208]       *              0             0             1 
   209 a[209]       *              0             0             1 
   210 a[210]       *              0             0             1 
   211 a[211]       *              0             0             1 
   212 a[212]       *              0             0             1 
   213 a[213]       *              0             0             1 
   214 a[214]       *              0             0             1 
   215 a[215]       *              0             0             1 
   216 a[216]       *              0             0             1 
   217 a[217]       *              0             0             1 
   218 a[218]       *              0             0             1 
   219 a[219]       *              0             0             1 
   220 a[220]       *              0             0             1 
   221 a[221]       *              1             0             1 
   222 a[222]       *              0             0             1 
   223 a[223]       *              0             0             1 
   224 a[224]       *              0             0             1 
   225 a[225]       *              0             0             1 
   226 a[226]       *              0             0             1 
   227 a[227]       *              0             0             1 
   228 a[228]       *              0             0             1 
   229 a[229]       *              0             0             1 
   230 a[230]       *              0             0             1 
   231 a[231]       *              0             0             1 
   232 a[232]       *              0             0             1 
   233 a[233]       *              0             0             1 
   234 a[234]       *              0             0             1 
   235 a[235]       *              0             0             1 
   236 a[236]       *              0             0             1 
   237 a[237]       *              0             0             1 
   238 a[238]       *              0             0             1 
   239 a[239]       *              0             0             1 
   240 a[240]       *              0             0             1 
   241 a[241]       *              0             0             1 
   242 a[242]       *              0             0             1 
   243 a[243]       *              0             0             1 
   244 a[244]       *              0             0             1 
   245 a[245]       *              0             0             1 
   246 a[246]       *              0             0             1 
   247 a[247]       *              0             0             1 
   248 a[248]       *              0             0             1 
   249 a[249]       *              0             0             1 
   250 a[250]       *              0             0             1 
   251 a[251]       *              0             0             1 
   252 a[252]       *              0             0             1 
   253 a[253]       *              0             0             1 
   254 a[254]       *              0             0             1 
   255 a[255]       *              0             0             1 
   256 a[256]       *              0             0             1 
   257 a[257]       *              0             0             1 
   258 a[258]       *              0             0             1 
   259 a[259]       *              0             0             1 
   260 a[260]       *              0             0             1 
   261 a[261]       *              0             0             1 
   262 a[262]       *              0             0             1 
   263 a[263]       *              0             0             1 
   264 a[264]       *              0             0             1 
   265 a[265]       *              0             0             1 
   266 a[266]       *              0             0             1 
   267 a[267]       *              0             0             1 
   268 a[268]       *              0             0             1 
   269 a[269]       *              0             0             1 
   270 a[270]       *              0             0             1 
   271 a[271]       *              0             0             1 
   272 a[272]       *              0             0             1 
   273 a[273]       *              0             0             1 
   274 a[274]       *              0             0             1 
   275 a[275]       *              0             0             1 
   276 a[276]       *              0             0             1 
   277 a[277]       *              0             0             1 
   278 a[278]       *              0             0             1 
   279 a[279]       *              0             0             1 
   280 a[280]       *              0             0             1 
   281 a[281]       *              0             0             1 
   282 a[282]       *              0             0             1 
   283 a[283]       *              0             0             1 
   284 a[284]       *              0             0             1 
   285 a[285]       *              0             0             1 
   286 a[286]       *              0             0             1 
   287 a[287]       *              0             0             1 
   288 a[288]       *              0             0             1 
   289 a[289]       *              0             0             1 
   290 a[290]       *              0             0             1 
   291 a[291]       *              0             0             1 
   292 a[292]       *              0             0             1 
   293 a[293]       *              0             0             1 
   294 a[294]       *              0             0             1 

Integer feasibility conditions:

KKT.PE: max.abs.err = 0.00e+000 on row 0
        max.rel.err = 0.00e+000 on row 0
        High quality

KKT.PB: max.abs.err = 0.00e+000 on row 0
        max.rel.err = 0.00e+000 on row 0
        High quality

End of output
